Calculando min-max:
Criando instancia max-E...
Instancia criada.
Resolvendo instancia...

Welcome to IBM(R) ILOG(R) CPLEX(R) Interactive Optimizer 22.1.0.0
  with Simplex, Mixed Integer & Barrier Optimizers
5725-A06 5725-A29 5724-Y48 5724-Y49 5724-Y54 5724-Y55 5655-Y21
Copyright IBM Corp. 1988, 2022.  All Rights Reserved.

Type 'help' for a list of available commands.
Type 'help' followed by a command name for more
information on commands.

CPLEX> Logfile 'cplex.log' closed.
Logfile 'C:\Users\LUCASP~1\AppData\Local\Temp\tmp2gcdlt31.cplex.log' open.
CPLEX> Problem 'C:\Users\LUCASP~1\AppData\Local\Temp\tmptd1qu3sz.pyomo.lp' read.
Read time = 0.11 sec. (2.56 ticks)
CPLEX> Problem name         : C:\Users\LUCASP~1\AppData\Local\Temp\tmptd1qu3sz.pyomo.lp
Objective sense      : Maximize
Variables            :   13762  [Nneg: 1,  Binary: 13740,  General Integer: 21]
Objective nonzeros   :      60
Linear constraints   :   24985  [Less: 17018,  Greater: 1,  Equal: 7966]
  Nonzeros           :   59575
  RHS nonzeros       :    4944

Variables            : Min LB: 0.000000         Max UB: 1.000000       
Objective nonzeros   : Min   : 0.3058910        Max   : 0.7619800      
Linear constraints   :
  Nonzeros           : Min   : 1.000000         Max   : 100000.0       
  RHS nonzeros       : Min   : 1.000000         Max   : 20.00000       
CPLEX> Version identifier: 22.1.0.0 | 2022-03-09 | 1a383f8ce
Tried aggregator 3 times.
MIP Presolve eliminated 14707 rows and 9235 columns.
MIP Presolve modified 570 coefficients.
Aggregator did 225 substitutions.
Reduced MIP has 10053 rows, 4302 columns, and 25969 nonzeros.
Reduced MIP has 4283 binaries, 19 generals, 0 SOSs, and 0 indicators.
Presolve time = 0.28 sec. (87.09 ticks)
Found incumbent of value 1.517871 after 0.48 sec. (144.80 ticks)
Probing time = 0.27 sec. (25.33 ticks)
Tried aggregator 1 time.
Detecting symmetries...
MIP Presolve eliminated 36 rows and 12 columns.
Reduced MIP has 10017 rows, 4290 columns, and 25885 nonzeros.
Reduced MIP has 4271 binaries, 19 generals, 0 SOSs, and 0 indicators.
Presolve time = 0.36 sec. (73.37 ticks)
Probing time = 0.06 sec. (5.61 ticks)
Clique table members: 17150.
MIP emphasis: balance optimality and feasibility.
MIP search method: dynamic search.
Parallel mode: deterministic, using up to 4 threads.
Root relaxation solution time = 0.38 sec. (88.20 ticks)

        Nodes                                         Cuts/
   Node  Left     Objective  IInf  Best Integer    Best Bound    ItCnt     Gap

*     0+    0                            1.5179       32.8161              --- 
      0     0       14.4776    67        1.5179       14.4776     1063  853.81%
*     0+    0                           14.4776       14.4776             0.00%
      0     0        cutoff             14.4776       14.4776     1063    0.00%
Elapsed time = 2.19 sec. (556.47 ticks, tree = 0.01 MB, solutions = 2)

Root node processing (before b&c):
  Real time             =    2.20 sec. (557.05 ticks)
Parallel b&c, 4 threads:
  Real time             =    0.00 sec. (0.00 ticks)
  Sync time (average)   =    0.00 sec.
  Wait time (average)   =    0.00 sec.
                          ------------
Total (root+branch&cut) =    2.20 sec. (557.05 ticks)

Solution pool: 2 solutions saved.

MIP - Integer optimal solution:  Objective =  1.4477620000e+01
Solution time =    2.20 sec.  Iterations = 1063  Nodes = 0
Deterministic time = 557.09 ticks  (252.88 ticks/sec)

CPLEX> Incumbent solution written to file 'C:\Users\LUCASP~1\AppData\Local\Temp\tmpye3xdwur.cplex.sol'.
CPLEX> Criando instancia max-C...
Instancia criada.
Resolvendo instancia...

Welcome to IBM(R) ILOG(R) CPLEX(R) Interactive Optimizer 22.1.0.0
  with Simplex, Mixed Integer & Barrier Optimizers
5725-A06 5725-A29 5724-Y48 5724-Y49 5724-Y54 5724-Y55 5655-Y21
Copyright IBM Corp. 1988, 2022.  All Rights Reserved.

Type 'help' for a list of available commands.
Type 'help' followed by a command name for more
information on commands.

CPLEX> Logfile 'cplex.log' closed.
Logfile 'C:\Users\LUCASP~1\AppData\Local\Temp\tmp3r6y_crj.cplex.log' open.
CPLEX> Problem 'C:\Users\LUCASP~1\AppData\Local\Temp\tmpg8jvuvy1.pyomo.lp' read.
Read time = 0.08 sec. (2.56 ticks)
CPLEX> Problem name         : C:\Users\LUCASP~1\AppData\Local\Temp\tmpg8jvuvy1.pyomo.lp
Objective sense      : Maximize
Variables            :   13762  [Nneg: 1,  Binary: 13740,  General Integer: 21]
Objective nonzeros   :     100
Linear constraints   :   24985  [Less: 17018,  Greater: 1,  Equal: 7966]
  Nonzeros           :   59575
  RHS nonzeros       :    4944

Variables            : Min LB: 0.000000         Max UB: 1.000000       
Objective nonzeros   : Min   : 1.000000         Max   : 1.000000       
Linear constraints   :
  Nonzeros           : Min   : 1.000000         Max   : 100000.0       
  RHS nonzeros       : Min   : 1.000000         Max   : 20.00000       
CPLEX> Version identifier: 22.1.0.0 | 2022-03-09 | 1a383f8ce
Tried aggregator 3 times.
MIP Presolve eliminated 14707 rows and 9235 columns.
MIP Presolve modified 570 coefficients.
Aggregator did 225 substitutions.
Reduced MIP has 10053 rows, 4302 columns, and 25969 nonzeros.
Reduced MIP has 4283 binaries, 19 generals, 0 SOSs, and 0 indicators.
Presolve time = 0.25 sec. (87.01 ticks)
Found incumbent of value 0.000000 after 0.44 sec. (146.18 ticks)
Probing time = 0.22 sec. (24.98 ticks)
Tried aggregator 1 time.
Detecting symmetries...
MIP Presolve eliminated 33 rows and 11 columns.
Reduced MIP has 10020 rows, 4291 columns, and 25892 nonzeros.
Reduced MIP has 4272 binaries, 19 generals, 0 SOSs, and 0 indicators.
Presolve time = 0.17 sec. (81.99 ticks)
Probing time = 0.05 sec. (5.63 ticks)
Clique table members: 17154.
MIP emphasis: balance optimality and feasibility.
MIP search method: dynamic search.
Parallel mode: deterministic, using up to 4 threads.
Root relaxation solution time = 0.33 sec. (90.77 ticks)

        Nodes                                         Cuts/
   Node  Left     Objective  IInf  Best Integer    Best Bound    ItCnt     Gap

*     0+    0                            0.0000       87.0000              --- 
*     0+    0                           18.0000       87.0000           383.33%
      0     0       87.0000   272       18.0000       87.0000     1136  383.33%
*     0+    0                           45.0000       87.0000            93.33%
      0     0        cutoff             45.0000       87.0000     1136   93.33%
      0     2       87.0000    34       45.0000       87.0000     1136   93.33%
Elapsed time = 4.09 sec. (993.97 ticks, tree = 0.02 MB, solutions = 3)
     96    51       87.0000    30       45.0000       87.0000     4074   93.33%
    286   137       87.0000     2       45.0000       87.0000     7700   93.33%
*   322   128      integral     0       87.0000       87.0000     8165    0.00%

Implied bound cuts applied:  28

Root node processing (before b&c):
  Real time             =    4.02 sec. (990.64 ticks)
Parallel b&c, 4 threads:
  Real time             =    2.64 sec. (572.37 ticks)
  Sync time (average)   =    0.44 sec.
  Wait time (average)   =    0.00 sec.
                          ------------
Total (root+branch&cut) =    6.66 sec. (1563.01 ticks)

Solution pool: 5 solutions saved.

MIP - Integer optimal solution:  Objective =  8.7000000000e+01
Solution time =    6.66 sec.  Iterations = 8967  Nodes = 368
Deterministic time = 1563.05 ticks  (234.80 ticks/sec)

CPLEX> Incumbent solution written to file 'C:\Users\LUCASP~1\AppData\Local\Temp\tmptd0f1fhk.cplex.sol'.
CPLEX> Criando instancia min-E...
Instancia criada.
Resolvendo instancia...
Criando instancia min-C...
Instancia criada.
Resolvendo instancia...
Maximos: {'E': 14.477619999999996, 'C': 87.0, 'M': 0}
Minimos: {'E': 0.611782, 'C': 0.0, 'M': 0}
Resolvendo instancia...

Welcome to IBM(R) ILOG(R) CPLEX(R) Interactive Optimizer 22.1.0.0
  with Simplex, Mixed Integer & Barrier Optimizers
5725-A06 5725-A29 5724-Y48 5724-Y49 5724-Y54 5724-Y55 5655-Y21
Copyright IBM Corp. 1988, 2022.  All Rights Reserved.

Type 'help' for a list of available commands.
Type 'help' followed by a command name for more
information on commands.

CPLEX> Logfile 'cplex.log' closed.
Logfile 'C:\Users\LUCASP~1\AppData\Local\Temp\tmpepya92d8.cplex.log' open.
CPLEX> Problem 'C:\Users\LUCASP~1\AppData\Local\Temp\tmpalsizkfp.pyomo.lp' read.
Read time = 0.09 sec. (2.56 ticks)
CPLEX> Problem name         : C:\Users\LUCASP~1\AppData\Local\Temp\tmpalsizkfp.pyomo.lp
Objective sense      : Minimize
Variables            :   13762  [Nneg: 1,  Binary: 13740,  General Integer: 21]
Objective nonzeros   :     100
Linear constraints   :   24985  [Less: 17018,  Greater: 1,  Equal: 7966]
  Nonzeros           :   59575
  RHS nonzeros       :    4944

Variables            : Min LB: 0.000000         Max UB: 1.000000       
Objective nonzeros   : Min   : 0.01149425       Max   : 0.01149425     
Linear constraints   :
  Nonzeros           : Min   : 1.000000         Max   : 100000.0       
  RHS nonzeros       : Min   : 1.000000         Max   : 20.00000       
CPLEX> Version identifier: 22.1.0.0 | 2022-03-09 | 1a383f8ce
Tried aggregator 3 times.
MIP Presolve eliminated 14707 rows and 9235 columns.
MIP Presolve modified 570 coefficients.
Aggregator did 225 substitutions.
Reduced MIP has 10053 rows, 4302 columns, and 25969 nonzeros.
Reduced MIP has 4283 binaries, 19 generals, 0 SOSs, and 0 indicators.
Presolve time = 0.30 sec. (87.01 ticks)
Found incumbent of value 0.000000 after 0.51 sec. (146.18 ticks)
Probing time = 0.27 sec. (24.98 ticks)
Tried aggregator 1 time.
Detecting symmetries...
MIP Presolve eliminated 33 rows and 11 columns.
Reduced MIP has 10020 rows, 4291 columns, and 25892 nonzeros.
Reduced MIP has 4272 binaries, 19 generals, 0 SOSs, and 0 indicators.
Presolve time = 0.20 sec. (81.99 ticks)
Probing time = 0.06 sec. (5.63 ticks)
Clique table members: 17154.
MIP emphasis: balance optimality and feasibility.
MIP search method: dynamic search.
Parallel mode: deterministic, using up to 4 threads.
Root relaxation solution time = 0.52 sec. (90.77 ticks)

        Nodes                                         Cuts/
   Node  Left     Objective  IInf  Best Integer    Best Bound    ItCnt     Gap

*     0+    0                            0.0000       -1.0000              --- 
*     0+    0                           -0.2069       -1.0000           383.33%
      0     0       -1.0000   272       -0.2069       -1.0000     1136  383.33%
*     0+    0                           -0.5172       -1.0000            93.33%
      0     0  -1.00000e+75     0       -0.5172       -1.0000     1136   93.33%
      0     2       -1.0000    34       -0.5172       -1.0000     1136   93.33%
Elapsed time = 4.75 sec. (993.97 ticks, tree = 0.02 MB, solutions = 3)
     98    49       -1.0000     4       -0.5172       -1.0000     3947   93.33%
*   195    79      integral     0       -1.0000       -1.0000     6113    0.00%

Implied bound cuts applied:  20

Root node processing (before b&c):
  Real time             =    4.72 sec. (990.55 ticks)
Parallel b&c, 4 threads:
  Real time             =    2.23 sec. (390.61 ticks)
  Sync time (average)   =    0.42 sec.
  Wait time (average)   =    0.00 sec.
                          ------------
Total (root+branch&cut) =    6.95 sec. (1381.16 ticks)

Solution pool: 4 solutions saved.

MIP - Integer optimal solution:  Objective = -1.0000000000e+00
Solution time =    6.95 sec.  Iterations = 6533  Nodes = 214
Deterministic time = 1381.20 ticks  (198.65 ticks/sec)

CPLEX> Incumbent solution written to file 'C:\Users\LUCASP~1\AppData\Local\Temp\tmpoci44xqn.cplex.sol'.
CPLEX> 
Resultados:

E: 0.6667643167329665 -- 9.857028000000001 mA
C: 1.0 -- 87.0 m^2
WEIGHTED: -1.0
Solving time: 6.95 s
Total Pyomo time: 7.698272943496704 s
Total elapsed time since execution: 221.3365433216095
